Route #1: 75
Route #2: 4
Route #3: 67
Route #4: 26
Route #5: 17 51 6 68
Route #6: 72 39 9 32 44 3 16 63 33 73 62 28 74 30 2
Route #7: 31 55 25 50 18 24 49 23 56 41 43 1
Route #8: 34 46 52 27 45 29 48 47 21 61 22 64 42
Route #9: 12 40 58 10 38 65 11 66 59 14 53
Route #10: 7 35 8 19 54 13 57 15 5 37 20 70 60 71 36 69
cost: 760.2939341466697
